     Program PWSCF v.6.4.1 starts on  9Dec2020 at 23:57:17

     Waiting for input...
     Reading input from standard input

     Current dimensions of program PWSCF are:
     Max number of different atomic species (ntypx) = 10
     Max number of k-points (npk) =  40000
     Max angular momentum in pseudopotentials (lmaxx) =  3
               file O.pbe-rrkjus.UPF: wavefunction(s)  2S renormalized

     Subspace diagonalization in iterative solution of the eigenvalue problem:
     a serial algorithm will be used

     Title:
     ZnO slab

     bravais-lattice index     =            4
     lattice parameter (alat)  =       6.2020  a.u.
     unit-cell volume          =    1332.5565 (a.u.)^3
     number of atoms/cell      =            8
     number of atomic types    =            2
     number of electrons       =        72.00
     number of Kohn-Sham states=           40
     kinetic-energy cutoff     =      60.0000  Ry
     charge density cutoff     =     480.0000  Ry
     convergence threshold     =      1.0E-09
     mixing beta               =       0.7500
     number of iterations used =            8  plain     mixing
     Exchange-correlation      =  SLA  PW   PBE  PBE ( 1  4  3  4 0 0)
     nstep                     =           50

     celldm(1)=   6.202000  celldm(2)=   0.000000  celldm(3)=   6.450000
     celldm(4)=   0.000000  celldm(5)=   0.000000  celldm(6)=   0.000000

     crystal axes: (cart. coord. in units of alat)
               a(1) = (   1.000000   0.000000   0.000000 )
               a(2) = (  -0.500000   0.866025   0.000000 )
               a(3) = (   0.000000   0.000000   6.450000 )

     reciprocal axes: (cart. coord. in units 2 pi/alat)
               b(1) = (  1.000000  0.577350 -0.000000 )
               b(2) = (  0.000000  1.154701  0.000000 )
               b(3) = (  0.000000 -0.000000  0.155039 )

     PseudoPot. # 1 for Zn read from file:
     ./Zn.pbe-van.UPF
     MD5 check sum: 8a117cd81793830d6ad9bd6443d05479
     Pseudo is Ultrasoft, Zval = 12.0
     Generated by new atomic code, or converted to UPF format
     Using radial grid of  869 points,  6 beta functions with:
                l(1) =   0
                l(2) =   0
                l(3) =   1
                l(4) =   1
                l(5) =   2
                l(6) =   2
     Q(r) pseudized with  8 coefficients,  rinner =    0.800   0.800   0.800
                                                       0.800   0.800

     PseudoPot. # 2 for O  read from file:
     ./O.pbe-rrkjus.UPF
     MD5 check sum: 390ba29e75625707450f3bd3f0eb6be9
     Pseudo is Ultrasoft, Zval =  6.0
     Generated by new atomic code, or converted to UPF format
     Using radial grid of 1269 points,  4 beta functions with:
                l(1) =   0
                l(2) =   0
                l(3) =   1
                l(4) =   1
     Q(r) pseudized with 0 coefficients

     atomic species   valence    mass     pseudopotential
        Zn            12.00    30.00000     Zn( 1.00)
        O              6.00    16.00000     O ( 1.00)

      6 Sym. Ops. (no inversion) found

   Cartesian axes

     site n.     atom                  positions (alat units)
         1           O   tau(   1) = (   0.5000000  -0.2886751   0.0000000  )
         2           Zn  tau(   2) = (   0.5000000  -0.2886751   0.6127500  )
         3           O   tau(   3) = (   0.5000000   0.2886751   0.8062500  )
         4           Zn  tau(   4) = (   0.5000000   0.2886751   1.4190000  )
         5           O   tau(   5) = (   0.5000000  -0.2886751   1.6125000  )
         6           Zn  tau(   6) = (   0.5000000  -0.2886751   2.2252500  )
         7           O   tau(   7) = (   0.5000000   0.2886751   2.4187500  )
         8           Zn  tau(   8) = (   0.5000000   0.2886751   3.0315000  )

     number of k points=     9  gaussian smearing, width (Ry)=  0.0500
                       cart. coord. in units 2pi/alat
        k(    1) = (   0.0000000   0.0000000   0.0000000), wk =   0.0416667
        k(    2) = (   0.0000000   0.0000000   0.0516796), wk =   0.0833333
        k(    3) = (   0.0000000   0.2886751   0.0000000), wk =   0.2500000
        k(    4) = (   0.0000000   0.2886751   0.0516796), wk =   0.2500000
        k(    5) = (   0.0000000  -0.5773503   0.0000000), wk =   0.1250000
        k(    6) = (   0.0000000  -0.5773503   0.0516796), wk =   0.2500000
        k(    7) = (   0.2500000   0.4330127   0.0000000), wk =   0.2500000
        k(    8) = (   0.2500000   0.4330127   0.0516796), wk =   0.5000000
        k(    9) = (   0.0000000  -0.2886751   0.0516796), wk =   0.2500000

     Initial potential from superposition of free atoms

     starting charge   71.99939, renormalised to   72.00000

     negative rho (up, down):  6.415E-04 0.000E+00
     Starting wfcs are   40 randomized atomic wfcs

     Self-consistent Calculation

     iteration #  1     ecut=    60.00 Ry     beta= 0.75
     Davidson diagonalization with overlap
     ethr =  1.00E-02,  avg # of iterations =  4.1

     negative rho (up, down):  8.575E-04 0.000E+00

     total energy              =    -626.50808900 Ry
     Harris-Foulkes estimate   =    -634.43932049 Ry
     estimated scf accuracy    <       8.84735582 Ry

[...]

          k = 0.0000 0.0000 0.0000     band energies (ev):

   -19.1479 -18.7131 -17.8299 -15.3133  -7.1353  -7.0811  -7.0696  -7.0696
    -6.9417  -6.9417  -6.2382  -6.0856  -6.0856  -6.0599  -6.0598  -6.0332
    -5.9108  -5.9108  -5.8436  -5.8435  -5.5365  -5.5361  -4.8272  -4.5665
    -4.5628  -3.9733  -2.9661  -2.1240  -2.1239  -1.8538  -1.6873  -1.6872
    -0.7702  -0.7586  -0.5567   0.5719   0.6674   2.1384   3.4452   4.9593

[...]

     the Fermi energy is     0.3588 ev

!    total energy              =    -633.80488048 Ry
     Harris-Foulkes estimate   =    -633.80744060 Ry
     estimated scf accuracy    <       0.05182794 Ry

     The total energy is the sum of the following terms:

     one-electron contribution =   -3490.70476014 Ry
     hartree contribution      =    1790.00722662 Ry
     xc contribution           =    -101.78626572 Ry
     ewald contribution        =    1157.51503026 Ry
     scf correction            =      11.22647644 Ry
     smearing contrib. (-TS)   =      -0.06258794 Ry

[...]

     End of self-consistent calculation

          k = 0.0000 0.0000 0.0000 ( 10533 PWs)   bands (ev):

[...]

     one-electron contribution =   -3481.15091787 Ry
     hartree contribution      =    1791.71539146 Ry
     xc contribution           =    -101.81383476 Ry
     ewald contribution        =    1157.51503026 Ry
     smearing contrib. (-TS)   =      -0.06724100 Ry

     convergence has been achieved in  22 iterations

     Forces acting on atoms (cartesian axes, Ry/au):

     atom    1 type  2   force =     0.00000000    0.00000000    0.04247641
     atom    2 type  1   force =     0.00000000    0.00000000   -0.06183187
     atom    3 type  2   force =     0.00000000    0.00000000    0.02481300
     atom    4 type  1   force =     0.00000000    0.00000000   -0.01508775
     atom    5 type  2   force =     0.00000000   -0.00000000    0.01564470
     atom    6 type  1   force =     0.00000000    0.00000000   -0.01020251
     atom    7 type  2   force =     0.00000000    0.00000000    0.00068723
     atom    8 type  1   force =    -0.00000000    0.00000000    0.00350079

     Total force =     0.075101     Total SCF correction =     0.000084

     Computing stress (Cartesian axis) and pressure

          total   stress  (Ry/bohr**3)                   (kbar)     P=  -11.88
  -0.00005901  -0.00000000   0.00000000         -8.68     -0.00      0.00
  -0.00000000  -0.00005901  -0.00000000         -0.00     -8.68     -0.00
   0.00000000  -0.00000000  -0.00012417          0.00     -0.00    -18.27

     BFGS Geometry Optimization

     number of scf cycles    =   1
     number of bfgs steps    =   0

     energy   new            =    -633.8015719154 Ry

     new trust radius        =       0.0618318687 bohr
     new conv_thr            =       0.0000000010 Ry

ATOMIC_POSITIONS (crystal)
O        0.333333333  -0.333333333   0.001061833    0   0   1
Zn       0.333333333  -0.333333333   0.093454315    0   0   1
O        0.666666667   0.333333333   0.125000000    0   0   0
Zn       0.666666667   0.333333333   0.220000000    0   0   0
O        0.333333333  -0.333333333   0.250000000    0   0   0
Zn       0.333333333  -0.333333333   0.345000000    0   0   0
O        0.666666667   0.333333333   0.375017180    0   0   1
Zn       0.666666667   0.333333333   0.470087513    0   0   1

     Writing output data file ZnO.save/
     NEW-OLD atomic charge density approx. for the potential

[...]

     energy   old            =    -633.8015719154 Ry
     energy   new            =    -633.8065974030 Ry

     CASE: energy  _new < energy  _old

[...]

     Threshold (ethr) on eigenvalues was too large:
     Diagonalizing with lowered threshold

     Davidson diagonalization with overlap
     ethr =  1.32E-08,  avg # of iterations =  3.0

[...]

     WARNING: bfgs curvature condition failed, Theta= 0.886
     new trust radius        =       0.0055158330 bohr
     new conv_thr            =            4.0E-11 Ry

[...]

          k = 0.0000-0.2887 0.0517     band energies (ev):

[...]

     one-electron contribution =   -3422.33995689 Ry
     hartree contribution      =    1762.34143698 Ry
     xc contribution           =    -101.80132972 Ry
     ewald contribution        =    1128.05493706 Ry
     scf correction            =       0.00014477 Ry
     smearing contrib. (-TS)   =      -0.06704590 Ry

[...]

     WARNING: bfgs curvature condition failed, Theta= 0.917
     new trust radius        =       0.0004758628 bohr
     new conv_thr            =            1.0E-11 Ry

[...]

     Total force =     0.000155     Total SCF correction =     0.000006

[...]

     number of scf cycles    =  18
     number of bfgs steps    =  17

     energy   old            =    -633.8118146272 Ry
     energy   new            =    -633.8118147107 Ry

     CASE: energy  _new < energy  _old

     new trust radius        =       0.0005909104 bohr
     new conv_thr            =            1.0E-11 Ry

ATOMIC_POSITIONS (crystal)
O        0.333333333  -0.333333333   0.001367489    0   0   1
Zn       0.333333333  -0.333333333   0.088758270    0   0   1
O        0.666666667   0.333333333   0.125000000    0   0   0
Zn       0.666666667   0.333333333   0.220000000    0   0   0
O        0.333333333  -0.333333333   0.250000000    0   0   0
Zn       0.333333333  -0.333333333   0.345000000    0   0   0
O        0.666666667   0.333333333   0.376198714    0   0   1
Zn       0.666666667   0.333333333   0.471313267    0   0   1

     Writing output data file ZnO.save/
     NEW-OLD atomic charge density approx. for the potential

[...]

     Self-consistent Calculation

[...]

     Threshold (ethr) on eigenvalues was too large:
     Diagonalizing with lowered threshold

     Davidson diagonalization with overlap
     ethr =  2.44E-10,  avg # of iterations =  3.0

[...]

     total energy              =    -633.81181475 Ry
     Harris-Foulkes estimate   =    -633.81181475 Ry
     estimated scf accuracy    <          2.0E-11 Ry

     iteration #  9     ecut=    60.00 Ry     beta= 0.75
     Davidson diagonalization with overlap
     ethr =  1.00E-13,  avg # of iterations =  2.0

     negative rho (up, down):  1.256E-03 0.000E+00

     End of self-consistent calculation

[...]

          k = 0.0000-0.2887 0.0517 ( 10482 PWs)   bands (ev):

   -18.2517 -17.7612 -17.0307 -15.5674  -6.7506  -6.6000  -6.3624  -6.3620
    -6.1688  -6.1613  -6.0236  -5.9589  -5.9183  -5.7360  -5.6593  -5.5105
    -5.3075  -5.2515  -5.2013  -5.1079  -4.7191  -4.7089  -4.6337  -4.5700
    -4.3203  -3.6187  -3.1239  -2.6525  -2.1852  -2.0225  -1.5791  -1.4336
    -1.1659  -0.8825  -0.2526  -0.1602   0.4093   2.9406   4.0934   5.1374

     the Fermi energy is     0.2917 ev

!    total energy              =    -633.81181475 Ry
     Harris-Foulkes estimate   =    -633.81181475 Ry
     estimated scf accuracy    <          7.1E-12 Ry

     The total energy is the sum of the following terms:

     one-electron contribution =   -3421.43867508 Ry
     hartree contribution      =    1761.89302414 Ry
     xc contribution           =    -101.80081251 Ry
     ewald contribution        =    1127.60169685 Ry
     smearing contrib. (-TS)   =      -0.06704814 Ry

     convergence has been achieved in   9 iterations

     Forces acting on atoms (cartesian axes, Ry/au):

     atom    1 type  2   force =     0.00000000   -0.00000000   -0.00000206
     atom    2 type  1   force =     0.00000000    0.00000000    0.00000448
     atom    3 type  2   force =     0.00000000    0.00000000    0.01261756
     atom    4 type  1   force =     0.00000000    0.00000000   -0.02401373
     atom    5 type  2   force =     0.00000000   -0.00000000    0.02037807
     atom    6 type  1   force =     0.00000000    0.00000000   -0.00897111
     atom    7 type  2   force =     0.00000000    0.00000000    0.00001320
     atom    8 type  1   force =     0.00000000   -0.00000000   -0.00002640

     Total force =     0.000030     Total SCF correction =     0.000011
     SCF correction compared to forces is large: reduce conv_thr to get better values

     Computing stress (Cartesian axis) and pressure

          total   stress  (Ry/bohr**3)                   (kbar)     P=  -13.12
  -0.00010430   0.00000000   0.00000000        -15.34      0.00      0.00
   0.00000000  -0.00010430   0.00000000          0.00    -15.34      0.00
   0.00000000  -0.00000000  -0.00005889          0.00     -0.00     -8.66

     bfgs converged in  19 scf cycles and  18 bfgs steps
     (criteria: energy <  1.0E-05 Ry, force <  1.0E-04 Ry/Bohr)

     End of BFGS Geometry Optimization

     Final energy   =    -633.8118147458 Ry
Begin final coordinates

ATOMIC_POSITIONS (crystal)
O        0.333333333  -0.333333333   0.001367489    0   0   1
Zn       0.333333333  -0.333333333   0.088758270    0   0   1
O        0.666666667   0.333333333   0.125000000    0   0   0
Zn       0.666666667   0.333333333   0.220000000    0   0   0
O        0.333333333  -0.333333333   0.250000000    0   0   0
Zn       0.333333333  -0.333333333   0.345000000    0   0   0
O        0.666666667   0.333333333   0.376198714    0   0   1
Zn       0.666666667   0.333333333   0.471313267    0   0   1
End final coordinates

     Writing output data file ZnO.save/

     General routines

     Parallel routines

   This run was terminated on:   0:32:47  10Dec2020

   JOB DONE.